outputs/case_301.model.txt
insured_object_market_value = 0
insurance_amount = 0
contract_accounting_handling_specified = True
reinsurance_compliance = True
internal_control_audit_and_evaluation_done = True
required_documents_submitted = True
internal_audit_review_and_improvement = True
major_information_publicly_disclosed = True
internal_control_executed = True
insurance_product_approval_and_disclosure = True
reinsurance_contract_content_compliant = True
board_approved_signing_actuary = True
actuary_employed = True
internal_handling_established_and_executed = True
board_approved_external_actuary = True
internal_control_established = True
external_actuary_hired = True
internal_control_effectiveness_evaluated = True
signing_actuary_assigned = True
signing_actuary_report_fair_and_true = True
internal_control_statement_issued = True
annual_audit_plan_executed = True
insurance_rate_collected_accordingly = True
board_approval_for_actuary = True
insurance_product_review_compliant = True
internal_audit_report_handled_and_stored = True
actuary_assigned = True
insurance_product_information_publicly_available = True
deficiencies_and_anomalies_improved = True
external_actuary_report_fair_and_true = True
financial_and_business_disclosure_compliant = True
internal_handling_established = True
insurance_rate_set_by_authority = True
internal_audit_plan_and_execution = True
insurance_product_review_procedures_followed = True
contract_termination_conditions_specified = True
financial_business_documents_prepared = True
contract_other_mandated_items_specified = True
intra_group_reinsurance_risk_management_compliant = True
internal_control_established_and_executed = True
internal_handling_executed = True
internal_audit_organization_planned = True
board_and_management_evaluated_internal_control = True
actuary_reports_fair_and_true = True
external_actuary_review_executed = True
internal_audit_report_handling = True
contract_risk_scope_specified = True
reinsurance_business_compliant = True
retention_risk_management_compliant = True
contract_insolvency_handling_specified = True
reinsurance_out_risk_management_compliant = True
internal_audit_review_done = True
internal_audit_report_format_compliant = True
reinsurance_in_risk_management_compliant = True
external_actuary_reviewed = True
self_audit_supervised = True
penalty = False
insurance_product_approved_or_filed = True
major_information_reported_within_2_days = True
internal_audit_manual_compiled = True
insurance_rate_compliance = True
reinsurance_risk_management_plan_compliant = True
over_insurance_prohibited = True